12280 : 11557 11459 
11557 : 11158 12280 
11158 : 21662 11557 
20282 : 15986 18337 
11459 : 21536 10264 12280 
11719 : 7670 11879 
21662 : 4515 11158 
7858 : 11879 9329 
4515 : 1990 21662 
9329 : 7858 
10264 : 18337 11459 
8669 : 21536 1604 3678 
4288 : 11879 3678 
18337 : 20282 10264 
1604 : 8669 
7670 : 11719 
1990 : 4515 
21536 : 11459 8669 
11879 : 11719 7858 4288 
3678 : 4288 8669 
9783 : 15986 
15986 : 9783 20282 
7670 1990 11459 1604 9783 9329 
